p edge 40 73 5
v 13 3 4 5 9 14 19 26 28 32 35 36 37 40
v 7 8 10 20 29 30 38 39
v 9 2 12 13 18 21 22 23 24 33
v 6 6 7 11 15 16 31
v 5 1 17 25 27 34
e 1 19
e 1 21
e 1 37
e 2 18
e 2 24
e 2 27
e 3 13
e 3 24
e 3 25
e 3 34
e 4 22
e 4 30
e 4 40
e 5 12
e 6 11
e 6 24
e 6 27
e 7 16
e 7 35
e 7 36
e 8 18
e 8 22
e 8 34
e 9 14
e 9 29
e 9 32
e 10 22
e 10 26
e 10 27
e 10 33
e 10 39
e 11 32
e 11 40
e 12 18
e 12 30
e 13 20
e 13 27
e 13 35
e 14 32
e 14 38
e 15 24
e 16 17
e 16 29
e 17 24
e 17 29
e 18 38
e 18 40
e 19 27
e 19 29
e 20 30
e 20 31
e 21 24
e 21 26
e 22 37
e 23 28
e 23 29
e 23 35
e 24 34
e 25 29
e 26 32
e 26 34
e 27 30
e 27 37
e 27 38
e 27 40
e 28 38
e 30 38
e 31 32
e 31 33
e 33 35
e 33 38
e 36 38
e 37 38
